GLPSOL: GLPK LP/MIP Solver, v4.65
Parameter(s) specified in the command line:
 -m salbp2.mod -d instances/gapa-5.dat --tmlim 3600
Reading model section from salbp2.mod...
(unknown):0: unable to open salbp2.mod - No such file or directory
Context:                                                             
MathProg model processing error
